#######################
Slurm job id: 17497813_301
Running on machine: p29
Running cmd: /nfs/shared/static-builds/gurobi1202 SOFTMEMLIMIT=125 MIPFocus=3 Presolve=1 TimeLimit=300 seed=0 /nfs/models/miplib2010/k16x240.mps.bz2
#######################
Set parameter TimeLimit to value 300
Set parameter SoftMemLimit to value 125
Set parameter MIPFocus to value 3
Set parameter LogFile to value 1202-MIPFocus3-Presolve1-TimeLimit300-k16x240-0.log
Set parameter Presolve to value 1
Using license file /opt/gurobi/gurobi.lic

Gurobi Optimizer version 12.0.2 build v12.0.2rc0 (linux64 - "Ubuntu 22.04.4 LTS")
Copyright (c) 2025, Gurobi Optimization, LLC

Read MPS format model from file /nfs/models/miplib2010/k16x240.mps.bz2
Reading time = 0.00 seconds
k16x240: 256 rows, 480 columns, 960 nonzeros

Using Gurobi shared library /nfs/shared/static-builds/gurobi1202

CPU model: Intel(R) Xeon(R) E-2388G CPU @ 3.20GHz, instruction set [SSE2|AVX|AVX2|AVX512]
Thread count: 8 physical cores, 16 logical processors, using up to 16 threads

Non-default parameters:
TimeLimit  300
SoftMemLimit  125
MIPFocus  3
Presolve  1

Optimize a model with 256 rows, 480 columns and 960 nonzeros
Model fingerprint: 0x4e80885f
Variable types: 240 continuous, 240 integer (240 binary)
Coefficient statistics:
  Matrix range     [1e+00, 1e+03]
  Objective range  [1e+00, 1e+03]
  Bounds range     [1e+00, 1e+03]
  RHS range        [4e+00, 4e+02]
Found heuristic solution: objective 23615.000000
Presolve time: 0.00s
Presolved: 256 rows, 480 columns, 960 nonzeros
Variable types: 240 continuous, 240 integer (240 binary)

Root relaxation: objective 2.769838e+03, 51 iterations, 0.00 seconds (0.00 work units)

    Nodes    |    Current Node    |     Objective Bounds      |     Work
 Expl Unexpl |  Obj  Depth IntInf | Incumbent    BestBd   Gap | It/Node Time

     0     0 2769.83800    0   14 23615.0000 2769.83800  88.3%     -    0s
H    0     0                    11359.000000 2769.83800  75.6%     -    0s
H    0     0                    11195.000000 2769.83800  75.3%     -    0s
H    0     0                    11088.000000 2769.83800  75.0%     -    0s
H    0     0                    11074.000000 2769.83800  75.0%     -    0s
H    0     0                    10916.000000 8116.87580  25.6%     -    0s
     0     0 8116.87580    0   26 10916.0000 8116.87580  25.6%     -    0s
H    0     0                    10838.000000 8182.85928  24.5%     -    0s
H    0     0                    10836.000000 8182.85928  24.5%     -    0s
H    0     0                    10826.000000 8182.85928  24.4%     -    0s
H    0     0                    10806.000000 8182.85928  24.3%     -    0s
H    0     0                    10748.000000 8182.85928  23.9%     -    0s
     0     0 8741.28533    0   24 10748.0000 8741.28533  18.7%     -    0s
     0     0 8955.29750    0   32 10748.0000 8955.29750  16.7%     -    0s
     0     0 9051.08366    0   38 10748.0000 9051.08366  15.8%     -    0s
     0     0 9051.08366    0   38 10748.0000 9051.08366  15.8%     -    0s
     0     0 9187.99600    0   32 10748.0000 9187.99600  14.5%     -    0s
     0     0 9192.20978    0   31 10748.0000 9192.20978  14.5%     -    0s
     0     0 9247.00990    0   42 10748.0000 9247.00990  14.0%     -    0s
     0     0 9247.00990    0   42 10748.0000 9247.00990  14.0%     -    0s
H    0     0                    10681.000000 9247.00990  13.4%     -    0s
     0     2 9247.00990    0   42 10681.0000 9247.00990  13.4%     -    0s
H   89    98                    10674.000000 9395.44674  12.0%  69.4    0s
  3236  2553 10294.3324   22   34 10674.0000 10197.0048  4.47%  84.5    5s
 13714  8090 10553.2337   24   28 10674.0000 10423.8501  2.34%  63.9   10s
 40335  7138     cutoff   33      10674.0000 10603.2883  0.66%  41.5   15s

Cutting planes:
  Lift-and-project: 2
  Cover: 2
  Implied bound: 7
  Dual implied bound: 3
  MIR: 116
  Flow cover: 497
  Flow path: 41
  Zero half: 36
  Network: 20
  Relax-and-lift: 3

Explored 51713 nodes (1812566 simplex iterations) in 15.90 seconds (22.71 work units)
Thread count was 16 (of 16 available processors)

Solution count 10: 10674 10681 10748 ... 11088

Optimal solution found (tolerance 1.00e-04)
Best objective 1.067400000000e+04, best bound 1.067300000000e+04, gap 0.0094%
